files/path/simple.machine.smt2

;this file is automatically generated: Fri Aug 21 14:12:57 CST 2020

;declarations generated

(declare-fun T0 () Int)
(declare-fun T1 () Int)
(declare-fun T2 () Int)

;formula(s) generated
(assert (and (>= T0 0) (<= T0 2)))
(assert (and (>= T1 0) (<= T1 2)))
(assert (and (>= T2 0) (<= T2 2)))
(assert (= T2 1))
(assert (and (and (= T0 0) (= T1 1)) (or (and (= T1 1) (= T2 0)) (and (= T1 1) (= T2 2)))))

 ;end of formula 